* #variable= 665 #constraint= 234
min: +14 x1 +7 x2 +98 x3 +36 x4 +29 x5 +51 x6 +40 x7 +8 x8 +55 x9 +69 x10 +14 x11 +15 x12 +89 x13 +30 x14 +25 x15 +38 x16 +32 x17 +15 x18 +44 x19 +63 x20 +7 x21 +15 x22 +92 x23 +30 x24 +23 x25 +48 x26 +35 x27 +1 x28 +50 x29 +62 x30 +98 x31 +89 x32 +92 x33 +62 x34 +69 x35 +57 x36 +57 x37 +91 x38 +45 x39 +34 x40 +36 x41 +30 x42 +30 x43 +62 x44 +7 x45 +28 x46 +6 x47 +29 x48 +22 x49 +33 x50 +29 x51 +25 x52 +23 x53 +69 x54 +7 x55 +33 x56 +13 x57 +22 x58 +29 x59 +39 x60 +51 x61 +38 x62 +48 x63 +57 x64 +28 x65 +33 x66 +22 x67 +48 x68 +15 x69 +44 x70 +40 x71 +32 x72 +35 x73 +57 x74 +6 x75 +13 x76 +22 x77 +34 x78 +16 x79 +31 x80 +8 x81 +15 x82 +1 x83 +91 x84 +29 x85 +22 x86 +48 x87 +34 x88 +49 x89 +61 x90 +55 x91 +44 x92 +50 x93 +45 x94 +22 x95 +29 x96 +15 x97 +16 x98 +49 x99 +29 x100 +69 x101 +63 x102 +62 x103 +34 x104 +33 x105 +39 x106 +44 x107 +31 x108 +61 x109 +29 x110 ;

+14 x1 +7 x2 +98 x3 +36 x4 +29 x5 +51 x6 +40 x7 +8 x8 +55 x9 +69 x10 +14 x11 +15 x12 +89 x13 +30 x14 +25 x15 +38 x16 +32 x17 +15 x18 +44 x19 +63 x20 +7 x21 +15 x22 +92 x23 +30 x24 +23 x25 +48 x26 +35 x27 +1 x28 +50 x29 +62 x30 +98 x31 +89 x32 +92 x33 +62 x34 +69 x35 +57 x36 +57 x37 +91 x38 +45 x39 +34 x40 +36 x41 +30 x42 +30 x43 +62 x44 +7 x45 +28 x46 +6 x47 +29 x48 +22 x49 +33 x50 +29 x51 +25 x52 +23 x53 +69 x54 +7 x55 +33 x56 +13 x57 +22 x58 +29 x59 +39 x60 +51 x61 +38 x62 +48 x63 +57 x64 +28 x65 +33 x66 +22 x67 +48 x68 +15 x69 +44 x70 +40 x71 +32 x72 +35 x73 +57 x74 +6 x75 +13 x76 +22 x77 +34 x78 +16 x79 +31 x80 +8 x81 +15 x82 +1 x83 +91 x84 +29 x85 +22 x86 +48 x87 +34 x88 +49 x89 +61 x90 +55 x91 +44 x92 +50 x93 +45 x94 +22 x95 +29 x96 +15 x97 +16 x98 +49 x99 +29 x100 +69 x101 +63 x102 +62 x103 +34 x104 +33 x105 +39 x106 +44 x107 +31 x108 +61 x109 +29 x110 >= 0 ;

+1 x1 +1 x2 +1 x3 +1 x4 +1 x5 +1 x6 +1 x7 +1 x8 +1 x9 +1 x10 = 1 ;
+1 x11 +1 x12 +1 x13 +1 x14 +1 x15 +1 x16 +1 x17 +1 x18 +1 x19 +1 x20 = 1 ;
+1 x21 +1 x22 +1 x23 +1 x24 +1 x25 +1 x26 +1 x27 +1 x28 +1 x29 +1 x30 = 1 ;
+1 x31 +1 x32 +1 x33 +1 x34 +1 x35 +1 x36 +1 x37 +1 x38 +1 x39 +1 x40 = 1 ;
+1 x41 +1 x42 +1 x43 +1 x44 +1 x45 +1 x46 +1 x47 +1 x48 +1 x49 +1 x50 = 1 ;
+1 x51 +1 x52 +1 x53 +1 x54 +1 x55 +1 x56 +1 x57 +1 x58 +1 x59 +1 x60 = 1 ;
+1 x61 +1 x62 +1 x63 +1 x64 +1 x65 +1 x66 +1 x67 +1 x68 +1 x69 +1 x70 = 1 ;
+1 x71 +1 x72 +1 x73 +1 x74 +1 x75 +1 x76 +1 x77 +1 x78 +1 x79 +1 x80 = 1 ;
+1 x81 +1 x82 +1 x83 +1 x84 +1 x85 +1 x86 +1 x87 +1 x88 +1 x89 +1 x90 = 1 ;
+1 x91 +1 x92 +1 x93 +1 x94 +1 x95 +1 x96 +1 x97 +1 x98 +1 x99 +1 x100 = 1 ;
+1 x101 +1 x102 +1 x103 +1 x104 +1 x105 +1 x106 +1 x107 +1 x108 +1 x109 +1 x110 = 1 ;

+1 x11 +1 x21 +1 x31 +1 x41 +1 x51 +1 x61 +1 x71 +1 x81 +1 x91 +1 x101 = 1 ;
+1 x1 +1 x22 +1 x32 +1 x42 +1 x52 +1 x62 +1 x72 +1 x82 +1 x92 +1 x102 = 1 ;
+1 x2 +1 x12 +1 x33 +1 x43 +1 x53 +1 x63 +1 x73 +1 x83 +1 x93 +1 x103 = 1 ;
+1 x3 +1 x13 +1 x23 +1 x44 +1 x54 +1 x64 +1 x74 +1 x84 +1 x94 +1 x104 = 1 ;
+1 x4 +1 x14 +1 x24 +1 x34 +1 x55 +1 x65 +1 x75 +1 x85 +1 x95 +1 x105 = 1 ;
+1 x5 +1 x15 +1 x25 +1 x35 +1 x45 +1 x66 +1 x76 +1 x86 +1 x96 +1 x106 = 1 ;
+1 x6 +1 x16 +1 x26 +1 x36 +1 x46 +1 x56 +1 x77 +1 x87 +1 x97 +1 x107 = 1 ;
+1 x7 +1 x17 +1 x27 +1 x37 +1 x47 +1 x57 +1 x67 +1 x88 +1 x98 +1 x108 = 1 ;
+1 x8 +1 x18 +1 x28 +1 x38 +1 x48 +1 x58 +1 x68 +1 x78 +1 x99 +1 x109 = 1 ;
+1 x9 +1 x19 +1 x29 +1 x39 +1 x49 +1 x59 +1 x69 +1 x79 +1 x89 +1 x110 = 1 ;
+1 x10 +1 x20 +1 x30 +1 x40 +1 x50 +1 x60 +1 x70 +1 x80 +1 x90 +1 x100 = 1 ;

+1 x111 +2 x112 +4 x113 +8 x114 +16 x115  >= 0 ;
+1 x116 +2 x117 +4 x118 +8 x119 +16 x120  >= 0 ;
+1 x121 +2 x122 +4 x123 +8 x124 +16 x125  >= 0 ;
+1 x126 +2 x127 +4 x128 +8 x129 +16 x130  >= 0 ;
+1 x131 +2 x132 +4 x133 +8 x134 +16 x135  >= 0 ;
+1 x136 +2 x137 +4 x138 +8 x139 +16 x140  >= 0 ;
+1 x141 +2 x142 +4 x143 +8 x144 +16 x145  >= 0 ;
+1 x146 +2 x147 +4 x148 +8 x149 +16 x150  >= 0 ;
+1 x151 +2 x152 +4 x153 +8 x154 +16 x155  >= 0 ;
+1 x156 +2 x157 +4 x158 +8 x159 +16 x160  >= 0 ;
+1 x161 +2 x162 +4 x163 +8 x164 +16 x165  >= 0 ;


+1 x166 +2 x167 +4 x168 +8 x169 +16 x170  >= 0 ;
+1 x111 +2 x112 +4 x113 +8 x114 +16 x115 -1 x116 -2 x117 -4 x118 -8 x119 -16 x120 +11 x1 +1 x166 +2 x167 +4 x168 +8 x169 +16 x170  = 10 ;

+1 x171 +2 x172 +4 x173 +8 x174 +16 x175  >= 0 ;
+1 x111 +2 x112 +4 x113 +8 x114 +16 x115 -1 x121 -2 x122 -4 x123 -8 x124 -16 x125 +11 x2 +1 x171 +2 x172 +4 x173 +8 x174 +16 x175  = 10 ;

+1 x176 +2 x177 +4 x178 +8 x179 +16 x180  >= 0 ;
+1 x111 +2 x112 +4 x113 +8 x114 +16 x115 -1 x126 -2 x127 -4 x128 -8 x129 -16 x130 +11 x3 +1 x176 +2 x177 +4 x178 +8 x179 +16 x180  = 10 ;

+1 x181 +2 x182 +4 x183 +8 x184 +16 x185  >= 0 ;
+1 x111 +2 x112 +4 x113 +8 x114 +16 x115 -1 x131 -2 x132 -4 x133 -8 x134 -16 x135 +11 x4 +1 x181 +2 x182 +4 x183 +8 x184 +16 x185  = 10 ;

+1 x186 +2 x187 +4 x188 +8 x189 +16 x190  >= 0 ;
+1 x111 +2 x112 +4 x113 +8 x114 +16 x115 -1 x136 -2 x137 -4 x138 -8 x139 -16 x140 +11 x5 +1 x186 +2 x187 +4 x188 +8 x189 +16 x190  = 10 ;

+1 x191 +2 x192 +4 x193 +8 x194 +16 x195  >= 0 ;
+1 x111 +2 x112 +4 x113 +8 x114 +16 x115 -1 x141 -2 x142 -4 x143 -8 x144 -16 x145 +11 x6 +1 x191 +2 x192 +4 x193 +8 x194 +16 x195  = 10 ;

+1 x196 +2 x197 +4 x198 +8 x199 +16 x200  >= 0 ;
+1 x111 +2 x112 +4 x113 +8 x114 +16 x115 -1 x146 -2 x147 -4 x148 -8 x149 -16 x150 +11 x7 +1 x196 +2 x197 +4 x198 +8 x199 +16 x200  = 10 ;

+1 x201 +2 x202 +4 x203 +8 x204 +16 x205  >= 0 ;
+1 x111 +2 x112 +4 x113 +8 x114 +16 x115 -1 x151 -2 x152 -4 x153 -8 x154 -16 x155 +11 x8 +1 x201 +2 x202 +4 x203 +8 x204 +16 x205  = 10 ;

+1 x206 +2 x207 +4 x208 +8 x209 +16 x210  >= 0 ;
+1 x111 +2 x112 +4 x113 +8 x114 +16 x115 -1 x156 -2 x157 -4 x158 -8 x159 -16 x160 +11 x9 +1 x206 +2 x207 +4 x208 +8 x209 +16 x210  = 10 ;

+1 x211 +2 x212 +4 x213 +8 x214 +16 x215  >= 0 ;
+1 x111 +2 x112 +4 x113 +8 x114 +16 x115 -1 x161 -2 x162 -4 x163 -8 x164 -16 x165 +11 x10 +1 x211 +2 x212 +4 x213 +8 x214 +16 x215  = 10 ;

+1 x216 +2 x217 +4 x218 +8 x219 +16 x220  >= 0 ;
+1 x116 +2 x117 +4 x118 +8 x119 +16 x120 -1 x111 -2 x112 -4 x113 -8 x114 -16 x115 +11 x11 +1 x216 +2 x217 +4 x218 +8 x219 +16 x220  = 10 ;

+1 x221 +2 x222 +4 x223 +8 x224 +16 x225  >= 0 ;
+1 x116 +2 x117 +4 x118 +8 x119 +16 x120 -1 x121 -2 x122 -4 x123 -8 x124 -16 x125 +11 x12 +1 x221 +2 x222 +4 x223 +8 x224 +16 x225  = 10 ;

+1 x226 +2 x227 +4 x228 +8 x229 +16 x230  >= 0 ;
+1 x116 +2 x117 +4 x118 +8 x119 +16 x120 -1 x126 -2 x127 -4 x128 -8 x129 -16 x130 +11 x13 +1 x226 +2 x227 +4 x228 +8 x229 +16 x230  = 10 ;

+1 x231 +2 x232 +4 x233 +8 x234 +16 x235  >= 0 ;
+1 x116 +2 x117 +4 x118 +8 x119 +16 x120 -1 x131 -2 x132 -4 x133 -8 x134 -16 x135 +11 x14 +1 x231 +2 x232 +4 x233 +8 x234 +16 x235  = 10 ;

+1 x236 +2 x237 +4 x238 +8 x239 +16 x240  >= 0 ;
+1 x116 +2 x117 +4 x118 +8 x119 +16 x120 -1 x136 -2 x137 -4 x138 -8 x139 -16 x140 +11 x15 +1 x236 +2 x237 +4 x238 +8 x239 +16 x240  = 10 ;

+1 x241 +2 x242 +4 x243 +8 x244 +16 x245  >= 0 ;
+1 x116 +2 x117 +4 x118 +8 x119 +16 x120 -1 x141 -2 x142 -4 x143 -8 x144 -16 x145 +11 x16 +1 x241 +2 x242 +4 x243 +8 x244 +16 x245  = 10 ;

+1 x246 +2 x247 +4 x248 +8 x249 +16 x250  >= 0 ;
+1 x116 +2 x117 +4 x118 +8 x119 +16 x120 -1 x146 -2 x147 -4 x148 -8 x149 -16 x150 +11 x17 +1 x246 +2 x247 +4 x248 +8 x249 +16 x250  = 10 ;

+1 x251 +2 x252 +4 x253 +8 x254 +16 x255  >= 0 ;
+1 x116 +2 x117 +4 x118 +8 x119 +16 x120 -1 x151 -2 x152 -4 x153 -8 x154 -16 x155 +11 x18 +1 x251 +2 x252 +4 x253 +8 x254 +16 x255  = 10 ;

+1 x256 +2 x257 +4 x258 +8 x259 +16 x260  >= 0 ;
+1 x116 +2 x117 +4 x118 +8 x119 +16 x120 -1 x156 -2 x157 -4 x158 -8 x159 -16 x160 +11 x19 +1 x256 +2 x257 +4 x258 +8 x259 +16 x260  = 10 ;

+1 x261 +2 x262 +4 x263 +8 x264 +16 x265  >= 0 ;
+1 x116 +2 x117 +4 x118 +8 x119 +16 x120 -1 x161 -2 x162 -4 x163 -8 x164 -16 x165 +11 x20 +1 x261 +2 x262 +4 x263 +8 x264 +16 x265  = 10 ;

+1 x266 +2 x267 +4 x268 +8 x269 +16 x270  >= 0 ;
+1 x121 +2 x122 +4 x123 +8 x124 +16 x125 -1 x111 -2 x112 -4 x113 -8 x114 -16 x115 +11 x21 +1 x266 +2 x267 +4 x268 +8 x269 +16 x270  = 10 ;

+1 x271 +2 x272 +4 x273 +8 x274 +16 x275  >= 0 ;
+1 x121 +2 x122 +4 x123 +8 x124 +16 x125 -1 x116 -2 x117 -4 x118 -8 x119 -16 x120 +11 x22 +1 x271 +2 x272 +4 x273 +8 x274 +16 x275  = 10 ;

+1 x276 +2 x277 +4 x278 +8 x279 +16 x280  >= 0 ;
+1 x121 +2 x122 +4 x123 +8 x124 +16 x125 -1 x126 -2 x127 -4 x128 -8 x129 -16 x130 +11 x23 +1 x276 +2 x277 +4 x278 +8 x279 +16 x280  = 10 ;

+1 x281 +2 x282 +4 x283 +8 x284 +16 x285  >= 0 ;
+1 x121 +2 x122 +4 x123 +8 x124 +16 x125 -1 x131 -2 x132 -4 x133 -8 x134 -16 x135 +11 x24 +1 x281 +2 x282 +4 x283 +8 x284 +16 x285  = 10 ;

+1 x286 +2 x287 +4 x288 +8 x289 +16 x290  >= 0 ;
+1 x121 +2 x122 +4 x123 +8 x124 +16 x125 -1 x136 -2 x137 -4 x138 -8 x139 -16 x140 +11 x25 +1 x286 +2 x287 +4 x288 +8 x289 +16 x290  = 10 ;

+1 x291 +2 x292 +4 x293 +8 x294 +16 x295  >= 0 ;
+1 x121 +2 x122 +4 x123 +8 x124 +16 x125 -1 x141 -2 x142 -4 x143 -8 x144 -16 x145 +11 x26 +1 x291 +2 x292 +4 x293 +8 x294 +16 x295  = 10 ;

+1 x296 +2 x297 +4 x298 +8 x299 +16 x300  >= 0 ;
+1 x121 +2 x122 +4 x123 +8 x124 +16 x125 -1 x146 -2 x147 -4 x148 -8 x149 -16 x150 +11 x27 +1 x296 +2 x297 +4 x298 +8 x299 +16 x300  = 10 ;

+1 x301 +2 x302 +4 x303 +8 x304 +16 x305  >= 0 ;
+1 x121 +2 x122 +4 x123 +8 x124 +16 x125 -1 x151 -2 x152 -4 x153 -8 x154 -16 x155 +11 x28 +1 x301 +2 x302 +4 x303 +8 x304 +16 x305  = 10 ;

+1 x306 +2 x307 +4 x308 +8 x309 +16 x310  >= 0 ;
+1 x121 +2 x122 +4 x123 +8 x124 +16 x125 -1 x156 -2 x157 -4 x158 -8 x159 -16 x160 +11 x29 +1 x306 +2 x307 +4 x308 +8 x309 +16 x310  = 10 ;

+1 x311 +2 x312 +4 x313 +8 x314 +16 x315  >= 0 ;
+1 x121 +2 x122 +4 x123 +8 x124 +16 x125 -1 x161 -2 x162 -4 x163 -8 x164 -16 x165 +11 x30 +1 x311 +2 x312 +4 x313 +8 x314 +16 x315  = 10 ;

+1 x316 +2 x317 +4 x318 +8 x319 +16 x320  >= 0 ;
+1 x126 +2 x127 +4 x128 +8 x129 +16 x130 -1 x111 -2 x112 -4 x113 -8 x114 -16 x115 +11 x31 +1 x316 +2 x317 +4 x318 +8 x319 +16 x320  = 10 ;

+1 x321 +2 x322 +4 x323 +8 x324 +16 x325  >= 0 ;
+1 x126 +2 x127 +4 x128 +8 x129 +16 x130 -1 x116 -2 x117 -4 x118 -8 x119 -16 x120 +11 x32 +1 x321 +2 x322 +4 x323 +8 x324 +16 x325  = 10 ;

+1 x326 +2 x327 +4 x328 +8 x329 +16 x330  >= 0 ;
+1 x126 +2 x127 +4 x128 +8 x129 +16 x130 -1 x121 -2 x122 -4 x123 -8 x124 -16 x125 +11 x33 +1 x326 +2 x327 +4 x328 +8 x329 +16 x330  = 10 ;

+1 x331 +2 x332 +4 x333 +8 x334 +16 x335  >= 0 ;
+1 x126 +2 x127 +4 x128 +8 x129 +16 x130 -1 x131 -2 x132 -4 x133 -8 x134 -16 x135 +11 x34 +1 x331 +2 x332 +4 x333 +8 x334 +16 x335  = 10 ;

+1 x336 +2 x337 +4 x338 +8 x339 +16 x340  >= 0 ;
+1 x126 +2 x127 +4 x128 +8 x129 +16 x130 -1 x136 -2 x137 -4 x138 -8 x139 -16 x140 +11 x35 +1 x336 +2 x337 +4 x338 +8 x339 +16 x340  = 10 ;

+1 x341 +2 x342 +4 x343 +8 x344 +16 x345  >= 0 ;
+1 x126 +2 x127 +4 x128 +8 x129 +16 x130 -1 x141 -2 x142 -4 x143 -8 x144 -16 x145 +11 x36 +1 x341 +2 x342 +4 x343 +8 x344 +16 x345  = 10 ;

+1 x346 +2 x347 +4 x348 +8 x349 +16 x350  >= 0 ;
+1 x126 +2 x127 +4 x128 +8 x129 +16 x130 -1 x146 -2 x147 -4 x148 -8 x149 -16 x150 +11 x37 +1 x346 +2 x347 +4 x348 +8 x349 +16 x350  = 10 ;

+1 x351 +2 x352 +4 x353 +8 x354 +16 x355  >= 0 ;
+1 x126 +2 x127 +4 x128 +8 x129 +16 x130 -1 x151 -2 x152 -4 x153 -8 x154 -16 x155 +11 x38 +1 x351 +2 x352 +4 x353 +8 x354 +16 x355  = 10 ;

+1 x356 +2 x357 +4 x358 +8 x359 +16 x360  >= 0 ;
+1 x126 +2 x127 +4 x128 +8 x129 +16 x130 -1 x156 -2 x157 -4 x158 -8 x159 -16 x160 +11 x39 +1 x356 +2 x357 +4 x358 +8 x359 +16 x360  = 10 ;

+1 x361 +2 x362 +4 x363 +8 x364 +16 x365  >= 0 ;
+1 x126 +2 x127 +4 x128 +8 x129 +16 x130 -1 x161 -2 x162 -4 x163 -8 x164 -16 x165 +11 x40 +1 x361 +2 x362 +4 x363 +8 x364 +16 x365  = 10 ;

+1 x366 +2 x367 +4 x368 +8 x369 +16 x370  >= 0 ;
+1 x131 +2 x132 +4 x133 +8 x134 +16 x135 -1 x111 -2 x112 -4 x113 -8 x114 -16 x115 +11 x41 +1 x366 +2 x367 +4 x368 +8 x369 +16 x370  = 10 ;

+1 x371 +2 x372 +4 x373 +8 x374 +16 x375  >= 0 ;
+1 x131 +2 x132 +4 x133 +8 x134 +16 x135 -1 x116 -2 x117 -4 x118 -8 x119 -16 x120 +11 x42 +1 x371 +2 x372 +4 x373 +8 x374 +16 x375  = 10 ;

+1 x376 +2 x377 +4 x378 +8 x379 +16 x380  >= 0 ;
+1 x131 +2 x132 +4 x133 +8 x134 +16 x135 -1 x121 -2 x122 -4 x123 -8 x124 -16 x125 +11 x43 +1 x376 +2 x377 +4 x378 +8 x379 +16 x380  = 10 ;

+1 x381 +2 x382 +4 x383 +8 x384 +16 x385  >= 0 ;
+1 x131 +2 x132 +4 x133 +8 x134 +16 x135 -1 x126 -2 x127 -4 x128 -8 x129 -16 x130 +11 x44 +1 x381 +2 x382 +4 x383 +8 x384 +16 x385  = 10 ;

+1 x386 +2 x387 +4 x388 +8 x389 +16 x390  >= 0 ;
+1 x131 +2 x132 +4 x133 +8 x134 +16 x135 -1 x136 -2 x137 -4 x138 -8 x139 -16 x140 +11 x45 +1 x386 +2 x387 +4 x388 +8 x389 +16 x390  = 10 ;

+1 x391 +2 x392 +4 x393 +8 x394 +16 x395  >= 0 ;
+1 x131 +2 x132 +4 x133 +8 x134 +16 x135 -1 x141 -2 x142 -4 x143 -8 x144 -16 x145 +11 x46 +1 x391 +2 x392 +4 x393 +8 x394 +16 x395  = 10 ;

+1 x396 +2 x397 +4 x398 +8 x399 +16 x400  >= 0 ;
+1 x131 +2 x132 +4 x133 +8 x134 +16 x135 -1 x146 -2 x147 -4 x148 -8 x149 -16 x150 +11 x47 +1 x396 +2 x397 +4 x398 +8 x399 +16 x400  = 10 ;

+1 x401 +2 x402 +4 x403 +8 x404 +16 x405  >= 0 ;
+1 x131 +2 x132 +4 x133 +8 x134 +16 x135 -1 x151 -2 x152 -4 x153 -8 x154 -16 x155 +11 x48 +1 x401 +2 x402 +4 x403 +8 x404 +16 x405  = 10 ;

+1 x406 +2 x407 +4 x408 +8 x409 +16 x410  >= 0 ;
+1 x131 +2 x132 +4 x133 +8 x134 +16 x135 -1 x156 -2 x157 -4 x158 -8 x159 -16 x160 +11 x49 +1 x406 +2 x407 +4 x408 +8 x409 +16 x410  = 10 ;

+1 x411 +2 x412 +4 x413 +8 x414 +16 x415  >= 0 ;
+1 x131 +2 x132 +4 x133 +8 x134 +16 x135 -1 x161 -2 x162 -4 x163 -8 x164 -16 x165 +11 x50 +1 x411 +2 x412 +4 x413 +8 x414 +16 x415  = 10 ;

+1 x416 +2 x417 +4 x418 +8 x419 +16 x420  >= 0 ;
+1 x136 +2 x137 +4 x138 +8 x139 +16 x140 -1 x111 -2 x112 -4 x113 -8 x114 -16 x115 +11 x51 +1 x416 +2 x417 +4 x418 +8 x419 +16 x420  = 10 ;

+1 x421 +2 x422 +4 x423 +8 x424 +16 x425  >= 0 ;
+1 x136 +2 x137 +4 x138 +8 x139 +16 x140 -1 x116 -2 x117 -4 x118 -8 x119 -16 x120 +11 x52 +1 x421 +2 x422 +4 x423 +8 x424 +16 x425  = 10 ;

+1 x426 +2 x427 +4 x428 +8 x429 +16 x430  >= 0 ;
+1 x136 +2 x137 +4 x138 +8 x139 +16 x140 -1 x121 -2 x122 -4 x123 -8 x124 -16 x125 +11 x53 +1 x426 +2 x427 +4 x428 +8 x429 +16 x430  = 10 ;

+1 x431 +2 x432 +4 x433 +8 x434 +16 x435  >= 0 ;
+1 x136 +2 x137 +4 x138 +8 x139 +16 x140 -1 x126 -2 x127 -4 x128 -8 x129 -16 x130 +11 x54 +1 x431 +2 x432 +4 x433 +8 x434 +16 x435  = 10 ;

+1 x436 +2 x437 +4 x438 +8 x439 +16 x440  >= 0 ;
+1 x136 +2 x137 +4 x138 +8 x139 +16 x140 -1 x131 -2 x132 -4 x133 -8 x134 -16 x135 +11 x55 +1 x436 +2 x437 +4 x438 +8 x439 +16 x440  = 10 ;

+1 x441 +2 x442 +4 x443 +8 x444 +16 x445  >= 0 ;
+1 x136 +2 x137 +4 x138 +8 x139 +16 x140 -1 x141 -2 x142 -4 x143 -8 x144 -16 x145 +11 x56 +1 x441 +2 x442 +4 x443 +8 x444 +16 x445  = 10 ;

+1 x446 +2 x447 +4 x448 +8 x449 +16 x450  >= 0 ;
+1 x136 +2 x137 +4 x138 +8 x139 +16 x140 -1 x146 -2 x147 -4 x148 -8 x149 -16 x150 +11 x57 +1 x446 +2 x447 +4 x448 +8 x449 +16 x450  = 10 ;

+1 x451 +2 x452 +4 x453 +8 x454 +16 x455  >= 0 ;
+1 x136 +2 x137 +4 x138 +8 x139 +16 x140 -1 x151 -2 x152 -4 x153 -8 x154 -16 x155 +11 x58 +1 x451 +2 x452 +4 x453 +8 x454 +16 x455  = 10 ;

+1 x456 +2 x457 +4 x458 +8 x459 +16 x460  >= 0 ;
+1 x136 +2 x137 +4 x138 +8 x139 +16 x140 -1 x156 -2 x157 -4 x158 -8 x159 -16 x160 +11 x59 +1 x456 +2 x457 +4 x458 +8 x459 +16 x460  = 10 ;

+1 x461 +2 x462 +4 x463 +8 x464 +16 x465  >= 0 ;
+1 x136 +2 x137 +4 x138 +8 x139 +16 x140 -1 x161 -2 x162 -4 x163 -8 x164 -16 x165 +11 x60 +1 x461 +2 x462 +4 x463 +8 x464 +16 x465  = 10 ;

+1 x466 +2 x467 +4 x468 +8 x469 +16 x470  >= 0 ;
+1 x141 +2 x142 +4 x143 +8 x144 +16 x145 -1 x111 -2 x112 -4 x113 -8 x114 -16 x115 +11 x61 +1 x466 +2 x467 +4 x468 +8 x469 +16 x470  = 10 ;

+1 x471 +2 x472 +4 x473 +8 x474 +16 x475  >= 0 ;
+1 x141 +2 x142 +4 x143 +8 x144 +16 x145 -1 x116 -2 x117 -4 x118 -8 x119 -16 x120 +11 x62 +1 x471 +2 x472 +4 x473 +8 x474 +16 x475  = 10 ;

+1 x476 +2 x477 +4 x478 +8 x479 +16 x480  >= 0 ;
+1 x141 +2 x142 +4 x143 +8 x144 +16 x145 -1 x121 -2 x122 -4 x123 -8 x124 -16 x125 +11 x63 +1 x476 +2 x477 +4 x478 +8 x479 +16 x480  = 10 ;

+1 x481 +2 x482 +4 x483 +8 x484 +16 x485  >= 0 ;
+1 x141 +2 x142 +4 x143 +8 x144 +16 x145 -1 x126 -2 x127 -4 x128 -8 x129 -16 x130 +11 x64 +1 x481 +2 x482 +4 x483 +8 x484 +16 x485  = 10 ;

+1 x486 +2 x487 +4 x488 +8 x489 +16 x490  >= 0 ;
+1 x141 +2 x142 +4 x143 +8 x144 +16 x145 -1 x131 -2 x132 -4 x133 -8 x134 -16 x135 +11 x65 +1 x486 +2 x487 +4 x488 +8 x489 +16 x490  = 10 ;

+1 x491 +2 x492 +4 x493 +8 x494 +16 x495  >= 0 ;
+1 x141 +2 x142 +4 x143 +8 x144 +16 x145 -1 x136 -2 x137 -4 x138 -8 x139 -16 x140 +11 x66 +1 x491 +2 x492 +4 x493 +8 x494 +16 x495  = 10 ;

+1 x496 +2 x497 +4 x498 +8 x499 +16 x500  >= 0 ;
+1 x141 +2 x142 +4 x143 +8 x144 +16 x145 -1 x146 -2 x147 -4 x148 -8 x149 -16 x150 +11 x67 +1 x496 +2 x497 +4 x498 +8 x499 +16 x500  = 10 ;

+1 x501 +2 x502 +4 x503 +8 x504 +16 x505  >= 0 ;
+1 x141 +2 x142 +4 x143 +8 x144 +16 x145 -1 x151 -2 x152 -4 x153 -8 x154 -16 x155 +11 x68 +1 x501 +2 x502 +4 x503 +8 x504 +16 x505  = 10 ;

+1 x506 +2 x507 +4 x508 +8 x509 +16 x510  >= 0 ;
+1 x141 +2 x142 +4 x143 +8 x144 +16 x145 -1 x156 -2 x157 -4 x158 -8 x159 -16 x160 +11 x69 +1 x506 +2 x507 +4 x508 +8 x509 +16 x510  = 10 ;

+1 x511 +2 x512 +4 x513 +8 x514 +16 x515  >= 0 ;
+1 x141 +2 x142 +4 x143 +8 x144 +16 x145 -1 x161 -2 x162 -4 x163 -8 x164 -16 x165 +11 x70 +1 x511 +2 x512 +4 x513 +8 x514 +16 x515  = 10 ;

+1 x516 +2 x517 +4 x518 +8 x519 +16 x520  >= 0 ;
+1 x146 +2 x147 +4 x148 +8 x149 +16 x150 -1 x111 -2 x112 -4 x113 -8 x114 -16 x115 +11 x71 +1 x516 +2 x517 +4 x518 +8 x519 +16 x520  = 10 ;

+1 x521 +2 x522 +4 x523 +8 x524 +16 x525  >= 0 ;
+1 x146 +2 x147 +4 x148 +8 x149 +16 x150 -1 x116 -2 x117 -4 x118 -8 x119 -16 x120 +11 x72 +1 x521 +2 x522 +4 x523 +8 x524 +16 x525  = 10 ;

+1 x526 +2 x527 +4 x528 +8 x529 +16 x530  >= 0 ;
+1 x146 +2 x147 +4 x148 +8 x149 +16 x150 -1 x121 -2 x122 -4 x123 -8 x124 -16 x125 +11 x73 +1 x526 +2 x527 +4 x528 +8 x529 +16 x530  = 10 ;

+1 x531 +2 x532 +4 x533 +8 x534 +16 x535  >= 0 ;
+1 x146 +2 x147 +4 x148 +8 x149 +16 x150 -1 x126 -2 x127 -4 x128 -8 x129 -16 x130 +11 x74 +1 x531 +2 x532 +4 x533 +8 x534 +16 x535  = 10 ;

+1 x536 +2 x537 +4 x538 +8 x539 +16 x540  >= 0 ;
+1 x146 +2 x147 +4 x148 +8 x149 +16 x150 -1 x131 -2 x132 -4 x133 -8 x134 -16 x135 +11 x75 +1 x536 +2 x537 +4 x538 +8 x539 +16 x540  = 10 ;

+1 x541 +2 x542 +4 x543 +8 x544 +16 x545  >= 0 ;
+1 x146 +2 x147 +4 x148 +8 x149 +16 x150 -1 x136 -2 x137 -4 x138 -8 x139 -16 x140 +11 x76 +1 x541 +2 x542 +4 x543 +8 x544 +16 x545  = 10 ;

+1 x546 +2 x547 +4 x548 +8 x549 +16 x550  >= 0 ;
+1 x146 +2 x147 +4 x148 +8 x149 +16 x150 -1 x141 -2 x142 -4 x143 -8 x144 -16 x145 +11 x77 +1 x546 +2 x547 +4 x548 +8 x549 +16 x550  = 10 ;

+1 x551 +2 x552 +4 x553 +8 x554 +16 x555  >= 0 ;
+1 x146 +2 x147 +4 x148 +8 x149 +16 x150 -1 x151 -2 x152 -4 x153 -8 x154 -16 x155 +11 x78 +1 x551 +2 x552 +4 x553 +8 x554 +16 x555  = 10 ;

+1 x556 +2 x557 +4 x558 +8 x559 +16 x560  >= 0 ;
+1 x146 +2 x147 +4 x148 +8 x149 +16 x150 -1 x156 -2 x157 -4 x158 -8 x159 -16 x160 +11 x79 +1 x556 +2 x557 +4 x558 +8 x559 +16 x560  = 10 ;

+1 x561 +2 x562 +4 x563 +8 x564 +16 x565  >= 0 ;
+1 x146 +2 x147 +4 x148 +8 x149 +16 x150 -1 x161 -2 x162 -4 x163 -8 x164 -16 x165 +11 x80 +1 x561 +2 x562 +4 x563 +8 x564 +16 x565  = 10 ;

+1 x566 +2 x567 +4 x568 +8 x569 +16 x570  >= 0 ;
+1 x151 +2 x152 +4 x153 +8 x154 +16 x155 -1 x111 -2 x112 -4 x113 -8 x114 -16 x115 +11 x81 +1 x566 +2 x567 +4 x568 +8 x569 +16 x570  = 10 ;

+1 x571 +2 x572 +4 x573 +8 x574 +16 x575  >= 0 ;
+1 x151 +2 x152 +4 x153 +8 x154 +16 x155 -1 x116 -2 x117 -4 x118 -8 x119 -16 x120 +11 x82 +1 x571 +2 x572 +4 x573 +8 x574 +16 x575  = 10 ;

+1 x576 +2 x577 +4 x578 +8 x579 +16 x580  >= 0 ;
+1 x151 +2 x152 +4 x153 +8 x154 +16 x155 -1 x121 -2 x122 -4 x123 -8 x124 -16 x125 +11 x83 +1 x576 +2 x577 +4 x578 +8 x579 +16 x580  = 10 ;

+1 x581 +2 x582 +4 x583 +8 x584 +16 x585  >= 0 ;
+1 x151 +2 x152 +4 x153 +8 x154 +16 x155 -1 x126 -2 x127 -4 x128 -8 x129 -16 x130 +11 x84 +1 x581 +2 x582 +4 x583 +8 x584 +16 x585  = 10 ;

+1 x586 +2 x587 +4 x588 +8 x589 +16 x590  >= 0 ;
+1 x151 +2 x152 +4 x153 +8 x154 +16 x155 -1 x131 -2 x132 -4 x133 -8 x134 -16 x135 +11 x85 +1 x586 +2 x587 +4 x588 +8 x589 +16 x590  = 10 ;

+1 x591 +2 x592 +4 x593 +8 x594 +16 x595  >= 0 ;
+1 x151 +2 x152 +4 x153 +8 x154 +16 x155 -1 x136 -2 x137 -4 x138 -8 x139 -16 x140 +11 x86 +1 x591 +2 x592 +4 x593 +8 x594 +16 x595  = 10 ;

+1 x596 +2 x597 +4 x598 +8 x599 +16 x600  >= 0 ;
+1 x151 +2 x152 +4 x153 +8 x154 +16 x155 -1 x141 -2 x142 -4 x143 -8 x144 -16 x145 +11 x87 +1 x596 +2 x597 +4 x598 +8 x599 +16 x600  = 10 ;

+1 x601 +2 x602 +4 x603 +8 x604 +16 x605  >= 0 ;
+1 x151 +2 x152 +4 x153 +8 x154 +16 x155 -1 x146 -2 x147 -4 x148 -8 x149 -16 x150 +11 x88 +1 x601 +2 x602 +4 x603 +8 x604 +16 x605  = 10 ;

+1 x606 +2 x607 +4 x608 +8 x609 +16 x610  >= 0 ;
+1 x151 +2 x152 +4 x153 +8 x154 +16 x155 -1 x156 -2 x157 -4 x158 -8 x159 -16 x160 +11 x89 +1 x606 +2 x607 +4 x608 +8 x609 +16 x610  = 10 ;

+1 x611 +2 x612 +4 x613 +8 x614 +16 x615  >= 0 ;
+1 x151 +2 x152 +4 x153 +8 x154 +16 x155 -1 x161 -2 x162 -4 x163 -8 x164 -16 x165 +11 x90 +1 x611 +2 x612 +4 x613 +8 x614 +16 x615  = 10 ;

+1 x616 +2 x617 +4 x618 +8 x619 +16 x620  >= 0 ;
+1 x156 +2 x157 +4 x158 +8 x159 +16 x160 -1 x111 -2 x112 -4 x113 -8 x114 -16 x115 +11 x91 +1 x616 +2 x617 +4 x618 +8 x619 +16 x620  = 10 ;

+1 x621 +2 x622 +4 x623 +8 x624 +16 x625  >= 0 ;
+1 x156 +2 x157 +4 x158 +8 x159 +16 x160 -1 x116 -2 x117 -4 x118 -8 x119 -16 x120 +11 x92 +1 x621 +2 x622 +4 x623 +8 x624 +16 x625  = 10 ;

+1 x626 +2 x627 +4 x628 +8 x629 +16 x630  >= 0 ;
+1 x156 +2 x157 +4 x158 +8 x159 +16 x160 -1 x121 -2 x122 -4 x123 -8 x124 -16 x125 +11 x93 +1 x626 +2 x627 +4 x628 +8 x629 +16 x630  = 10 ;

+1 x631 +2 x632 +4 x633 +8 x634 +16 x635  >= 0 ;
+1 x156 +2 x157 +4 x158 +8 x159 +16 x160 -1 x126 -2 x127 -4 x128 -8 x129 -16 x130 +11 x94 +1 x631 +2 x632 +4 x633 +8 x634 +16 x635  = 10 ;

+1 x636 +2 x637 +4 x638 +8 x639 +16 x640  >= 0 ;
+1 x156 +2 x157 +4 x158 +8 x159 +16 x160 -1 x131 -2 x132 -4 x133 -8 x134 -16 x135 +11 x95 +1 x636 +2 x637 +4 x638 +8 x639 +16 x640  = 10 ;

+1 x641 +2 x642 +4 x643 +8 x644 +16 x645  >= 0 ;
+1 x156 +2 x157 +4 x158 +8 x159 +16 x160 -1 x136 -2 x137 -4 x138 -8 x139 -16 x140 +11 x96 +1 x641 +2 x642 +4 x643 +8 x644 +16 x645  = 10 ;

+1 x646 +2 x647 +4 x648 +8 x649 +16 x650  >= 0 ;
+1 x156 +2 x157 +4 x158 +8 x159 +16 x160 -1 x141 -2 x142 -4 x143 -8 x144 -16 x145 +11 x97 +1 x646 +2 x647 +4 x648 +8 x649 +16 x650  = 10 ;

+1 x651 +2 x652 +4 x653 +8 x654 +16 x655  >= 0 ;
+1 x156 +2 x157 +4 x158 +8 x159 +16 x160 -1 x146 -2 x147 -4 x148 -8 x149 -16 x150 +11 x98 +1 x651 +2 x652 +4 x653 +8 x654 +16 x655  = 10 ;

+1 x656 +2 x657 +4 x658 +8 x659 +16 x660  >= 0 ;
+1 x156 +2 x157 +4 x158 +8 x159 +16 x160 -1 x151 -2 x152 -4 x153 -8 x154 -16 x155 +11 x99 +1 x656 +2 x657 +4 x658 +8 x659 +16 x660  = 10 ;

+1 x661 +2 x662 +4 x663 +8 x664 +16 x665  >= 0 ;
+1 x156 +2 x157 +4 x158 +8 x159 +16 x160 -1 x161 -2 x162 -4 x163 -8 x164 -16 x165 +11 x100 +1 x661 +2 x662 +4 x663 +8 x664 +16 x665  = 10 ;